p tdp 20 100
1 5
1 9
1 11
1 12
1 13
1 14
1 16
1 17
1 18
1 20
2 5
2 9
2 11
2 12
2 13
2 14
2 16
2 17
2 18
2 20
3 5
3 9
3 11
3 12
3 13
3 14
3 16
3 17
3 18
3 20
4 5
4 9
4 11
4 12
4 13
4 14
4 16
4 17
4 18
4 20
5 6
5 7
5 8
5 10
5 15
5 19
6 9
6 11
6 12
6 13
6 14
6 16
6 17
6 18
6 20
7 9
7 11
7 12
7 13
7 14
7 16
7 17
7 18
7 20
8 9
8 11
8 12
8 13
8 14
8 16
8 17
8 18
8 20
9 10
9 15
9 19
10 11
10 12
10 13
10 14
10 16
10 17
10 18
10 20
11 15
11 19
12 15
12 19
13 15
13 19
14 15
14 19
15 16
15 17
15 18
15 20
16 19
17 19
18 19
19 20
